************************************************************************
file with basedata            : md382_.bas
initial value random generator: 1177201216
************************************************************************
projects                      :  1
jobs (incl. supersource/sink ):  22
horizon                       :  148
RESOURCES
  - renewable                 :  2   R
  - nonrenewable              :  2   N
  - doubly constrained        :  0   D
************************************************************************
PROJECT INFORMATION:
pronr.  #jobs rel.date duedate tardcost  MPM-Time
    1     20      0       17        2       17
************************************************************************
PRECEDENCE RELATIONS:
jobnr.    #modes  #successors   successors
   1        1          3           2   3   4
   2        3          3           8  14  16
   3        3          3           5   6  11
   4        3          3           7  13  14
   5        3          3          10  12  18
   6        3          2          14  18
   7        3          3           9  10  15
   8        3          2          12  17
   9        3          2          17  18
  10        3          1          16
  11        3          3          12  19  20
  12        3          1          21
  13        3          1          16
  14        3          1          17
  15        3          1          19
  16        3          2          20  21
  17        3          1          20
  18        3          2          19  21
  19        3          1          22
  20        3          1          22
  21        3          1          22
  22        1          0        
************************************************************************
REQUESTS/DURATIONS:
jobnr. mode duration  R 1  R 2  N 1  N 2
------------------------------------------------------------------------
  1      1     0       0    0    0    0
  2      1     2       6    4    5    8
         2     7       5    3    4    8
         3    10       4    3    1    6
  3      1     6       7   10   10    9
         2     9       6    9    9    7
         3     9       4   10    8    8
  4      1     1      10   10    7    9
         2     2      10    6    4    9
         3     8      10    5    2    7
  5      1     2       5    9    9   10
         2     3       5    7    4    9
         3     8       4    6    1    7
  6      1     1       9    9    3    7
         2     5       8    9    2    6
         3     8       8    9    2    5
  7      1     5       2    5    4    9
         2     6       2    4    3    8
         3     8       1    4    2    5
  8      1     2       8    7    7    4
         2     3       3    4    6    3
         3     3       1    6    5    3
  9      1     2       7    3    9    7
         2     5       7    3    9    6
         3     9       1    2    7    6
 10      1     5       2    6    7    9
         2     6       2    4    5    7
         3     8       1    2    3    6
 11      1     1      10    8    7    9
         2     5      10    7    7    5
         3     8      10    7    7    4
 12      1     5       8    9    9    9
         2     5       7   10    6    8
         3     6       5    8    2    7
 13      1     5       3    2    6    6
         2     7       1    2    5    2
         3     7       1    1    6    4
 14      1     1      10    7    4    4
         2     9      10    7    3    4
         3     9       9    7    4    4
 15      1     1      10    7    9    7
         2     2      10    4    4    7
         3     4      10    4    2    7
 16      1     1       7    5    4    9
         2     3       7    3    1    9
         3     3       7    4    3    8
 17      1     1      10    9    7    8
         2     2       7    8    4    4
         3     6       5    7    3    2
 18      1     3       6   10    7    5
         2     8       6    9    6    4
         3    10       5    6    5    4
 19      1     6       3    7    2    7
         2     9       2    5    2    3
         3     9       3    3    2    6
 20      1     1       6    7    5    9
         2     5       6    6    5    9
         3     7       6    6    4    7
 21      1     1       7   10   10   10
         2     3       5   10    8    9
         3     8       5    9    8    7
 22      1     0       0    0    0    0
************************************************************************
RESOURCEAVAILABILITIES:
  R 1  R 2  N 1  N 2
   26   23  131  155
************************************************************************
